c preprocessed version of McGeeGraph, 24 vertices, 36 edges
p td 24 36
0 1
0 12
0 23
1 2
1 8
10 11
10 17
11 12
12 13
13 14
13 20
14 15
15 16
16 17
16 23
17 18
18 19
19 20
2 19
2 3
20 21
21 22
22 23
3 15
3 4
4 11
4 5
5 22
5 6
6 18
6 7
7 14
7 8
8 9
9 10
9 21
